5,1	0,0	9,8	19,4	0,0	0,0	0,0	0,0	0,0	6,0
19,2	8,1	0,0	11,5	15,7	0,0	0,0	11,6	0,0	0,0
0,0	0,0	6,4	0,0	7,2	12,4	0,0	0,0	15,1	0,0
8,1	0,0	11,2	0,0	0,0	0,0	10,8	0,0	0,0	0,0
0,0	18,9	0,0	10,6	14,7	0,0	0,0	10,0	0,0	0,0
0,0	10,3	16,6	0,0	10,5	16,6	0,0	0,0	16,4	0,0
0,0	18,0	0,0	13,7	0,0	0,0	12,2	0,0	0,0	11,3
8,5	0,0	18,9	0,0	0,0	0,0	0,0	0,0	0,0	6,8
0,0	10,1	0,0	11,8	16,9	0,0	0,0	14,8	0,0	0,0
0,0	0,0	9,7	0,0	0,0	10,5	11,4	0,0	0,0	16,7
									
3,3	4,5	3,8	3,2	4,2	2,8	3,5	3,1	3,6	3,1
